NAME : LPS-n4-m93
COMMENT : (Lartu-Peter-Santi Plot, instance 493 out of 39200. 4 customers.)
TYPE : CVRP
DIMENSION : 4
EDGE_WEIGHT_TYPE : EUC_2D
CAPACITY : 142
NODE_COORD_SECTION
 1 77 65
 2 21 36
 3 74 75
 4 96 74
DEMAND_SECTION
1 0
2 28
3 89
4 111
DEPOT_SECTION
 1
 -1
EOF
